c defined variables: 24 25 26 27 28 29 30 31 32 33 34 35 36 37 38 39 40 41 42 43 44 45 46 49 50 51 52 53 56 57 60 62 64 65 66 67 68 69 70 71 72 73 75 76 77 78 79 82 83 84 85 86 87 88 89 90 91 92 93 94 95 96 97 98 99 100 101 102 103 104 105 107 108 109 110 111 112 113 114 115 116 117 118 119 120 121 122 123 124 125 126 127 128 129 130 131 132 133 134 135 136 137 138 
p cnf 587 856
a 5 6 7 8 10 11 12 13 14 15 16 17 18 19 20 21 0
e 47 48 54 55 58 59 61 63 74 80 81 106 24 25 26 27 28 29 30 31 32 33 34 35 36 37 38 39 40 41 42 43 44 45 46 49 50 51 52 53 56 57 60 62 64 65 66 67 68 69 70 71 72 73 75 76 77 78 79 82 83 84 85 86 87 88 89 90 91 92 93 94 95 96 97 98 99 100 101 102 103 104 105 107 108 109 110 111 112 113 114 115 116 117 118 119 120 121 122 123 124 125 126 127 128 129 130 131 132 133 134 135 136 137 138 486 487 488 489 490 491 492 493 494 495 496 497 498 499 500 501 502 503 504 505 506 507 508 509 510 511 512 513 514 515 516 517 518 519 520 521 522 523 524 525 526 527 528 529 530 531 532 533 534 535 536 537 538 539 540 541 542 543 544 545 546 547 548 549 550 551 552 553 554 555 556 557 558 559 560 561 562 563 564 565 566 567 568 569 570 571 572 573 574 575 576 577 578 579 580 581 582 583 584 585 586 587 0
d 1 5 6 7 8 10 11 12 13 14 15 0
d 2 5 6 7 8 10 11 12 13 14 15 0
d 3 5 6 7 8 10 11 12 13 14 15 0
d 4 5 6 7 8 10 11 12 13 14 15 0
d 9 5 6 7 8 10 11 12 13 14 15 0
d 22 10 11 12 13 14 15 0
d 23 16 17 18 19 20 21 0
487 -24 0
-487 24 0
488 -25 0
-488 25 0
489 -26 0
-489 26 0
490 -27 0
-490 27 0
491 -28 0
-491 28 0
492 -29 0
-492 29 0
493 -30 0
-493 30 0
494 -31 0
-494 31 0
495 -32 0
-495 32 0
496 -33 0
-496 33 0
497 -34 0
-497 34 0
498 -35 0
-498 35 0
499 -36 0
-499 36 0
500 -37 0
-500 37 0
501 -38 0
-501 38 0
502 -39 0
-502 39 0
503 -40 0
-503 40 0
504 -41 0
-504 41 0
505 -42 0
-505 42 0
506 -43 0
-506 43 0
507 -44 0
-507 44 0
508 -45 0
-508 45 0
509 -46 0
-509 46 0
510 -49 0
-510 49 0
-486 -50 0
486 50 0
511 -51 0
-511 51 0
512 -52 0
-512 52 0
513 -53 0
-513 53 0
514 -56 0
-514 56 0
515 -57 0
-515 57 0
516 -60 0
-516 60 0
517 -62 0
-517 62 0
518 -64 0
-518 64 0
519 -65 0
-519 65 0
520 -66 0
-520 66 0
521 -67 0
-521 67 0
522 -68 0
-522 68 0
525 -69 0
-525 69 0
528 -70 0
-528 70 0
529 -71 0
-529 71 0
530 -72 0
-530 72 0
531 -73 0
-531 73 0
532 -75 0
-532 75 0
533 -76 0
-533 76 0
534 -77 0
-534 77 0
535 -78 0
-535 78 0
537 -79 0
-537 79 0
538 -82 0
-538 82 0
539 -83 0
-539 83 0
540 -84 0
-540 84 0
541 -85 0
-541 85 0
542 -86 0
-542 86 0
543 -87 0
-543 87 0
544 -88 0
-544 88 0
545 -89 0
-545 89 0
546 -90 0
-546 90 0
547 -91 0
-547 91 0
548 -92 0
-548 92 0
549 -93 0
-549 93 0
550 -94 0
-550 94 0
551 -95 0
-551 95 0
552 -96 0
-552 96 0
553 -97 0
-553 97 0
554 -98 0
-554 98 0
555 -99 0
-555 99 0
556 -100 0
-556 100 0
557 -101 0
-557 101 0
558 -102 0
-558 102 0
559 -103 0
-559 103 0
560 -104 0
-560 104 0
561 -105 0
-561 105 0
562 -107 0
-562 107 0
563 -108 0
-563 108 0
564 -109 0
-564 109 0
565 -110 0
-565 110 0
566 -111 0
-566 111 0
567 -112 0
-567 112 0
568 -113 0
-568 113 0
569 -114 0
-569 114 0
570 -115 0
-570 115 0
571 -116 0
-571 116 0
572 -117 0
-572 117 0
573 -118 0
-573 118 0
574 -119 0
-574 119 0
575 -120 0
-575 120 0
576 -121 0
-576 121 0
577 -122 0
-577 122 0
578 -123 0
-578 123 0
-486 -124 0
486 124 0
579 -125 0
-579 125 0
580 -126 0
-580 126 0
581 -127 0
-581 127 0
582 -128 0
-582 128 0
-486 -129 0
486 129 0
583 -130 0
-583 130 0
584 -131 0
-584 131 0
585 -132 0
-585 132 0
586 -133 0
-586 133 0
587 -134 0
-587 134 0
-486 -135 0
486 135 0
486 -136 0
-486 136 0
486 -137 0
-486 137 0
486 -138 0
-486 138 0
-24 -20 0
-24 14 0
24 20 -14 0
-25 20 0
-25 -14 0
25 -20 14 0
-26 -24 0
-26 -25 0
26 24 25 0
-27 -21 0
-27 15 0
27 21 -15 0
-28 21 0
-28 -15 0
28 -21 15 0
-29 -27 0
-29 -28 0
29 27 28 0
-30 26 0
-30 29 0
30 -26 -29 0
-31 -16 0
-31 10 0
31 16 -10 0
-32 16 0
-32 -10 0
32 -16 10 0
-33 -31 0
-33 -32 0
33 31 32 0
-34 -17 0
-34 11 0
34 17 -11 0
-35 17 0
-35 -11 0
35 -17 11 0
-36 -34 0
-36 -35 0
36 34 35 0
-37 33 0
-37 36 0
37 -33 -36 0
-38 -18 0
-38 12 0
38 18 -12 0
-39 18 0
-39 -12 0
39 -18 12 0
-40 -38 0
-40 -39 0
40 38 39 0
-41 -19 0
-41 13 0
41 19 -13 0
-42 19 0
-42 -13 0
42 -19 13 0
-43 -41 0
-43 -42 0
43 41 42 0
-44 40 0
-44 43 0
44 -40 -43 0
-45 37 0
-45 44 0
45 -37 -44 0
-46 30 0
-46 45 0
46 -30 -45 0
-47 23 0
-47 -22 0
47 -23 22 0
-48 -23 0
-48 22 0
48 23 -22 0
-49 -47 0
-49 -48 0
49 47 48 0
-50 46 0
-50 -49 0
50 -46 49 0
-51 14 0
-51 10 0
51 -14 -10 0
-52 13 0
-52 10 0
52 -13 -10 0
-53 12 0
-53 10 0
53 -12 -10 0
-54 -2 0
-54 -1 0
54 2 1 0
-55 4 0
-55 -54 0
55 -4 54 0
-56 -6 0
-56 -55 0
56 6 55 0
-57 -7 0
-57 56 0
57 7 -56 0
-58 -7 0
-58 -2 0
58 7 2 0
-59 6 0
-59 1 0
59 -6 -1 0
-60 58 0
-60 59 0
60 -58 -59 0
-61 -6 0
-61 -1 0
61 6 1 0
-62 -59 0
-62 -61 0
62 59 61 0
-63 2 0
-63 -62 0
63 -2 62 0
-64 7 0
-64 63 0
64 -7 -63 0
-65 -60 0
-65 -64 0
65 60 64 0
-66 4 0
-66 -65 0
66 -4 65 0
-67 -57 0
-67 -66 0
67 57 66 0
-68 -5 0
-68 -67 0
68 5 67 0
-69 6 0
-69 2 0
69 -6 -2 0
-70 7 0
-70 1 0
70 -7 -1 0
-71 69 0
-71 70 0
71 -69 -70 0
-72 -69 0
-72 -70 0
72 69 70 0
-73 -71 0
-73 -72 0
73 71 72 0
-74 5 0
-74 2 0
74 -5 -2 0
-75 59 0
-75 74 0
75 -59 -74 0
-76 73 0
-76 75 0
76 -73 -75 0
-77 -73 0
-77 -75 0
77 73 75 0
-78 -76 0
-78 -77 0
78 76 77 0
-79 -4 0
-79 78 0
79 4 -78 0
-80 -5 0
-80 -4 0
80 5 4 0
-81 3 0
-81 -80 0
81 -3 80 0
-82 -79 0
-82 81 0
82 79 -81 0
-83 79 0
-83 -81 0
83 -79 81 0
-84 -82 0
-84 -83 0
84 82 83 0
-85 8 0
-85 84 0
85 -8 -84 0
-86 -8 0
-86 -84 0
86 8 84 0
-87 -85 0
-87 -86 0
87 85 86 0
-88 68 0
-88 87 0
88 -68 -87 0
-89 53 0
-89 -88 0
89 -53 88 0
-90 52 0
-90 89 0
90 -52 -89 0
-91 51 0
-91 90 0
91 -51 -90 0
-92 -51 0
-92 -90 0
92 51 90 0
-93 -91 0
-93 -92 0
93 91 92 0
-94 -20 0
-94 93 0
94 20 -93 0
-95 20 0
-95 -93 0
95 -20 93 0
-96 -94 0
-96 -95 0
96 94 95 0
-97 15 0
-97 10 0
97 -15 -10 0
-98 97 0
-98 -91 0
98 -97 91 0
-99 -97 0
-99 91 0
99 97 -91 0
-100 -98 0
-100 -99 0
100 98 99 0
-101 -21 0
-101 -100 0
101 21 100 0
-102 21 0
-102 100 0
102 -21 -100 0
-103 -101 0
-103 -102 0
103 101 102 0
-104 96 0
-104 103 0
104 -96 -103 0
-105 11 0
-105 10 0
105 -11 -10 0
-106 -9 0
-106 -105 0
106 9 105 0
-107 -17 0
-107 -106 0
107 17 106 0
-108 17 0
-108 106 0
108 -17 -106 0
-109 -107 0
-109 -108 0
109 107 108 0
-110 16 0
-110 109 0
110 -16 -109 0
-111 -53 0
-111 88 0
111 53 -88 0
-112 -89 0
-112 -111 0
112 89 111 0
-113 -18 0
-113 112 0
113 18 -112 0
-114 18 0
-114 -112 0
114 -18 112 0
-115 -113 0
-115 -114 0
115 113 114 0
-116 -52 0
-116 -89 0
116 52 89 0
-117 -90 0
-117 -116 0
117 90 116 0
-118 -19 0
-118 117 0
118 19 -117 0
-119 19 0
-119 -117 0
119 -19 117 0
-120 -118 0
-120 -119 0
120 118 119 0
-121 115 0
-121 120 0
121 -115 -120 0
-122 110 0
-122 121 0
122 -110 -121 0
-123 104 0
-123 122 0
123 -104 -122 0
-124 123 0
-124 48 0
124 -123 -48 0
-125 12 0
-125 52 0
125 -12 -52 0
-126 51 0
-126 125 0
126 -51 -125 0
-127 97 0
-127 126 0
127 -97 -126 0
-128 127 0
-128 105 0
128 -127 -105 0
-129 22 0
-129 128 0
129 -22 -128 0
-130 -15 0
-130 -14 0
130 15 14 0
-131 -11 0
-131 -10 0
131 11 10 0
-132 -13 0
-132 -12 0
132 13 12 0
-133 131 0
-133 132 0
133 -131 -132 0
-134 130 0
-134 133 0
134 -130 -133 0
-135 -22 0
-135 134 0
135 22 -134 0
-136 -129 0
-136 -135 0
136 129 135 0
-137 -124 0
-137 136 0
137 124 -136 0
-138 -50 0
-138 137 0
138 50 -137 0
138 0
486 0
14 -487 0
-20 -487 0
-14 20 487 0
-14 -488 0
20 -488 0
14 -20 488 0
-24 -489 0
-25 -489 0
24 25 489 0
15 -490 0
-21 -490 0
-15 21 490 0
-15 -491 0
21 -491 0
15 -21 491 0
-27 -492 0
-28 -492 0
27 28 492 0
26 -493 0
29 -493 0
-26 -29 493 0
10 -494 0
-16 -494 0
-10 16 494 0
-10 -495 0
16 -495 0
10 -16 495 0
-31 -496 0
-32 -496 0
31 32 496 0
11 -497 0
-17 -497 0
-11 17 497 0
-11 -498 0
17 -498 0
11 -17 498 0
-34 -499 0
-35 -499 0
34 35 499 0
33 -500 0
36 -500 0
-33 -36 500 0
12 -501 0
-18 -501 0
-12 18 501 0
-12 -502 0
18 -502 0
12 -18 502 0
-38 -503 0
-39 -503 0
38 39 503 0
13 -504 0
-19 -504 0
-13 19 504 0
-13 -505 0
19 -505 0
13 -19 505 0
-41 -506 0
-42 -506 0
41 42 506 0
40 -507 0
43 -507 0
-40 -43 507 0
37 -508 0
44 -508 0
-37 -44 508 0
30 -509 0
45 -509 0
-30 -45 509 0
-47 -510 0
-48 -510 0
47 48 510 0
10 -511 0
14 -511 0
-10 -14 511 0
10 -512 0
13 -512 0
-10 -13 512 0
10 -513 0
12 -513 0
-10 -12 513 0
-6 -514 0
-55 -514 0
6 55 514 0
-7 -515 0
56 -515 0
7 -56 515 0
58 -516 0
59 -516 0
-58 -59 516 0
-59 -517 0
-61 -517 0
59 61 517 0
7 -518 0
63 -518 0
-7 -63 518 0
-60 -519 0
-64 -519 0
60 64 519 0
55 -520 0
-65 -520 0
-55 65 520 0
-57 -521 0
-66 -521 0
57 66 521 0
-5 -522 0
-67 -522 0
5 67 522 0
-62 -523 0
-63 -523 0
62 63 523 0
6 -524 0
-54 -524 0
-6 54 524 0
-523 -525 0
524 -525 0
523 -524 525 0
6 -526 0
-59 -526 0
-6 59 526 0
7 -527 0
-61 -527 0
-7 61 527 0
-526 -528 0
527 -528 0
526 -527 528 0
69 -529 0
70 -529 0
-69 -70 529 0
-69 -530 0
-70 -530 0
69 70 530 0
-71 -531 0
-72 -531 0
71 72 531 0
59 -532 0
74 -532 0
-59 -74 532 0
73 -533 0
75 -533 0
-73 -75 533 0
-73 -534 0
-75 -534 0
73 75 534 0
-76 -535 0
-77 -535 0
76 77 535 0
-55 -536 0
-77 -536 0
55 77 536 0
78 -537 0
536 -537 0
-78 -536 537 0
-79 -538 0
81 -538 0
79 -81 538 0
79 -539 0
-81 -539 0
-79 81 539 0
-82 -540 0
-83 -540 0
82 83 540 0
8 -541 0
84 -541 0
-8 -84 541 0
-8 -542 0
-84 -542 0
8 84 542 0
-85 -543 0
-86 -543 0
85 86 543 0
68 -544 0
87 -544 0
-68 -87 544 0
53 -545 0
-88 -545 0
-53 88 545 0
52 -546 0
89 -546 0
-52 -89 546 0
51 -547 0
90 -547 0
-51 -90 547 0
-51 -548 0
-90 -548 0
51 90 548 0
-91 -549 0
-92 -549 0
91 92 549 0
-20 -550 0
93 -550 0
20 -93 550 0
20 -551 0
-93 -551 0
-20 93 551 0
-94 -552 0
-95 -552 0
94 95 552 0
10 -553 0
15 -553 0
-10 -15 553 0
-91 -554 0
97 -554 0
91 -97 554 0
91 -555 0
-97 -555 0
-91 97 555 0
-98 -556 0
-99 -556 0
98 99 556 0
-21 -557 0
-100 -557 0
21 100 557 0
21 -558 0
100 -558 0
-21 -100 558 0
-101 -559 0
-102 -559 0
101 102 559 0
96 -560 0
103 -560 0
-96 -103 560 0
10 -561 0
11 -561 0
-10 -11 561 0
-17 -562 0
-106 -562 0
17 106 562 0
17 -563 0
106 -563 0
-17 -106 563 0
-107 -564 0
-108 -564 0
107 108 564 0
16 -565 0
109 -565 0
-16 -109 565 0
-53 -566 0
88 -566 0
53 -88 566 0
-89 -567 0
-111 -567 0
89 111 567 0
-18 -568 0
112 -568 0
18 -112 568 0
18 -569 0
-112 -569 0
-18 112 569 0
-113 -570 0
-114 -570 0
113 114 570 0
-52 -571 0
-89 -571 0
52 89 571 0
-90 -572 0
-116 -572 0
90 116 572 0
-19 -573 0
117 -573 0
19 -117 573 0
19 -574 0
-117 -574 0
-19 117 574 0
-118 -575 0
-119 -575 0
118 119 575 0
115 -576 0
120 -576 0
-115 -120 576 0
110 -577 0
121 -577 0
-110 -121 577 0
104 -578 0
122 -578 0
-104 -122 578 0
12 -579 0
52 -579 0
-12 -52 579 0
51 -580 0
125 -580 0
-51 -125 580 0
97 -581 0
126 -581 0
-97 -126 581 0
105 -582 0
127 -582 0
-105 -127 582 0
-14 -583 0
-15 -583 0
14 15 583 0
-10 -584 0
-11 -584 0
10 11 584 0
-12 -585 0
-13 -585 0
12 13 585 0
131 -586 0
132 -586 0
-131 -132 586 0
130 -587 0
133 -587 0
-130 -133 587 0
